c read Graph
c width = 40
c time = 188 ms
c width = 3
c time = 263 ms
c width = 3
c time = 4636 ms
s td 57 4 60
b 1 1 2 21
b 2 2 3 21 22
b 3 18 19 39 40
b 4 3 21 22 42
b 5 3 22 23 42
b 6 18 39 40 59
b 7 3 23 42 43
b 8 3 23 43 44
b 9 18 39 58 59
b 10 3 4 23 44
b 11 4 23 24 44
b 12 4 24 25 44
b 13 18 38 39 58
b 14 4 25 44 45
b 15 4 25 45 46
b 16 18 38 57 58
b 17 4 5 25 46
b 18 5 25 26 46
b 19 5 6 26 46
b 20 18 37 38 57
b 21 17 18 37 57
b 22 6 7 26 46
b 23 7 26 27 46
b 24 7 27 46 47
b 25 7 8 27 47
b 26 8 27 28 47
b 27 8 28 47 48
b 28 8 9 28 48
b 29 9 28 29 48
b 30 9 29 48 49
b 31 9 10 29 49
b 32 10 29 30 49
b 33 10 30 49 50
b 34 10 11 30 50
b 35 11 30 31 50
b 36 11 31 50 51
b 37 11 12 31 51
b 38 12 31 32 51
b 39 12 32 51 52
b 40 12 13 32 52
b 41 13 32 33 52
b 42 13 33 52 53
b 43 13 14 33 53
b 44 14 33 34 53
b 45 14 34 53 54
b 46 14 15 34 54
b 47 15 34 35 54
b 48 15 35 54 55
b 49 15 16 35 55
b 50 16 35 36 55
b 51 16 36 55 56
b 52 16 17 36 56
b 53 17 36 37 56
b 54 17 37 56 57
b 55 40 59 60
b 56 21 41 42
b 57 19 20 40
1 2
2 4
3 57
3 6
4 56
4 5
5 7
6 55
6 9
7 8
8 10
9 13
10 11
11 12
12 14
13 16
14 15
15 17
16 20
17 18
18 19
19 22
20 21
21 54
22 23
23 24
24 25
25 26
26 27
27 28
28 29
29 30
30 31
31 32
32 33
33 34
34 35
35 36
36 37
37 38
38 39
39 40
40 41
41 42
42 43
43 44
44 45
45 46
46 47
47 48
48 49
49 50
50 51
51 52
52 53
53 54
